letting n =  10
letting blocks =  [[1, 2], [1, 3], [1, 4], [1, 9], [1, 10], [2, 1], [2, 2], [2, 4], [2, 5], [3, 4], [3, 5], [3, 6], [4, 2], [4, 3], [4, 6], [4, 7], [5, 6], [5, 7], [5, 8], [5, 9], [6, 1], [6, 2], [6, 3], [6, 4], [6, 10], [7, 2], [7, 3], [7, 7], [7, 8], [7, 10], [8, 3], [8, 5], [9, 1], [9, 3], [9, 10], [10, 5], [10, 6], [10, 7], [10, 8], [10, 10]]
